5 5
4 1 5 17 5 5 18 1 6 4 9 3 15 2 17 4 5 20 2 18 3 4 1 16 4 2 5 5 8 4 15 3 6
5 5 1 13 2 14 4 7 3 4 5 14 4 5 15 1 18 3 18 2 2 4 3 19 4 3 2 6 5 16 5 3 14 5 17 4 4 1 17 2 7 2 2 13 4 11
5 3 5 3 3 15 1 17 2 5 18 1 5 1 3 15 3 4 3 5 18 2 13 4 1 17 3 5 2 19 5 17
8 1 3 12 3 5 16 2 12 1 15 1 5 12 5 1 7 5 9 2 16 4 12 3 11 4 1 16 3 13 2 18 5 11 2 2 3 3 9 1 4 20 5 2 7 5 15 1 19 3 18 4 20
6 1 5 13 1 4 20 5 1 7 5 6 2 19 3 11 4 8 4 1 9 5 19 2 5 3 19 5 2 14 5 14 1 3 3 16 4 17 5 3 13 4 3 2 10 5 2 1 16